
;this file is automatically generated: Mon Feb 10 17:01:40 CST 2020

;declarations generated

(declare-fun oclExcludes ( Int Int) Bool)
(declare-fun Cardinality ( Int) Int)
(declare-fun type_afefcd1f_cdee_494a_8a9b_940fffe6bf5f_Class29 ( Int) Bool)
(declare-fun obj_5efaa129_573b_4d3f_a400_1ca90b4895b4 ( Int) Int)
(declare-fun class7_Class7IntAttr3 ( Int) Int)
(declare-fun class7_Class7IntAttr4 ( Int) Int)
(declare-fun type_afefcd1f_cdee_494a_8a9b_940fffe6bf5f_Class2 ( Int) Bool)
(declare-fun type_afefcd1f_cdee_494a_8a9b_940fffe6bf5f_Class7 ( Int) Bool)
(declare-fun oclSelect ( Int Bool) Int)
(declare-fun Enum0 ( Int) Int)
(declare-fun Enum1 ( Int) Int)
(declare-fun Enum2 ( Int) Int)
(declare-fun type_afefcd1f_cdee_494a_8a9b_940fffe6bf5f_Class56 ( Int) Bool)
(declare-fun container_ ( Int) Int)
(declare-fun oclIncludes ( Int Int) Bool)
(declare-fun ObjAt ( Int Int) Int)

;formula(s) generated
(assert (! (forall ((v Int)) (=> (and (and (and ( type_afefcd1f_cdee_494a_8a9b_940fffe6bf5f_Class7 v )  ( type_afefcd1f_cdee_494a_8a9b_940fffe6bf5f_Class56 v ) ) ( type_afefcd1f_cdee_494a_8a9b_940fffe6bf5f_Class29 v ) ) ( type_afefcd1f_cdee_494a_8a9b_940fffe6bf5f_Class2 v ) ) (<= ( class7_Class7IntAttr3 ( obj_5efaa129_573b_4d3f_a400_1ca90b4895b4 v )  )  9))):named l0))
(assert (! (forall ((c7_2 Int)(c7_1 Int)) (=> (and (and (and (and ( type_afefcd1f_cdee_494a_8a9b_940fffe6bf5f_Class7 c7_1 )  ( type_afefcd1f_cdee_494a_8a9b_940fffe6bf5f_Class56 c7_1 ) ) ( type_afefcd1f_cdee_494a_8a9b_940fffe6bf5f_Class29 c7_1 ) ) ( type_afefcd1f_cdee_494a_8a9b_940fffe6bf5f_Class2 c7_1 ) ) (and (and (and ( type_afefcd1f_cdee_494a_8a9b_940fffe6bf5f_Class7 c7_2 )  ( type_afefcd1f_cdee_494a_8a9b_940fffe6bf5f_Class56 c7_2 ) ) ( type_afefcd1f_cdee_494a_8a9b_940fffe6bf5f_Class29 c7_2 ) ) ( type_afefcd1f_cdee_494a_8a9b_940fffe6bf5f_Class2 c7_2 ) )) (> ( class7_Class7IntAttr4 ( obj_5efaa129_573b_4d3f_a400_1ca90b4895b4 c7_1 )  )  ( class7_Class7IntAttr3 ( obj_5efaa129_573b_4d3f_a400_1ca90b4895b4 c7_2 )  ) ))):named l1))
(assert (exists ((o Int)) (and (and (and ( type_afefcd1f_cdee_494a_8a9b_940fffe6bf5f_Class7 ( obj_5efaa129_573b_4d3f_a400_1ca90b4895b4 o )  )  ( type_afefcd1f_cdee_494a_8a9b_940fffe6bf5f_Class56 ( obj_5efaa129_573b_4d3f_a400_1ca90b4895b4 o )  ) ) ( type_afefcd1f_cdee_494a_8a9b_940fffe6bf5f_Class29 ( obj_5efaa129_573b_4d3f_a400_1ca90b4895b4 o )  ) ) ( type_afefcd1f_cdee_494a_8a9b_940fffe6bf5f_Class2 ( obj_5efaa129_573b_4d3f_a400_1ca90b4895b4 o )  ) )))

 ;end of formula 